SYSTEM = NaK

ISTART = 0 # whether or not to read the WAVECAR file. 
ICHARG = 0 # how VASP constructs the initial charge density.
LWAVE = .FALSE. # whether the wavefunctions are written to the WAVECAR file
LCHARG = .FALSE. # LCHARG determines whether the charge densities (files CHGCAR and CHG) are written.
LVTOT = .FALSE. # whether the total local potential is written to the LOCPOT file
LVHAR = .FALSE. # whether the electrostatic potential is written to the LOCPOT file
LELF = .FALSE. # whether to create an ELFCAR file or not.
LSCALAPACK = .FALSE.
!IWAVPR = 11
ADDGRID = .True.

 PREC = Normal    ! standard precision 

! MD
!ISYM = 0         ! strongly recommened for MD
 IBRION = -1       ! molecular dynamics
! MDALGO = 2
! SMASS = 1       ! Nose Hoover thermostat
 NSW = 0       ! 5000 steps
 POTIM = 0.1      ! timestep 2 fs
! TEBEG = 750
! TEEND = 750 ! temperature
 ISIF = 2

! SCF
 ISMEAR = 0
 SIGMA = 0.05
 ALGO = Normal
 ENCUT = 400      ! cutoff should be set manually
 EDIFF  =   1E-06
 NELMIN = 5
 NELM = 150
 LREAL = Auto
 NCORE = 4
 !NELMDL = -12
 IVDW = 12
 VDW_S8 = 0.7875
 VDW_A1 = 0.4289
 VDW_A2 = 4.4407
! IMIX = 4
! AMIX = 0.05
! BMIX =0.0001
! AMIX_MAG = 0.8
! BMIX_MAG =0.0001
AMIN = 0.01
AMIX = 0.2
BMIX = 0.001
 KSPACING= 0.2
 KGAMMA=.TRUE.
